! wb97x-v def2-tzvp def2/J RIJCOSX DEFGRID2 scfconv7 GCP(DFT/TZ) printgap
%output
    printlevel normal
end
* xyz 0 1
C -2.4183384209203367 -0.10039817032132362 1.8401031028544143e-05
C -1.8320974839184456 -1.36363177793407 3.7322490359767193e-06
C -0.4451662671632379 -1.4801179668781477 -3.8115604335284092e-06
C 0.34139235932224354 -0.33580250005435586 -5.69604910203175e-07
C -0.23500605148657064 0.9383901278720368 1.0621561949955658e-05
C -1.6272643959122133 1.0418926803342057 2.329754952153912e-05
O 0.5828451444384287 2.0331754631175167 3.246599249144431e-06
Cl 2.092390617010883 -0.485262193399069 -2.9443315965439182e-05
H -3.4984182754630626 0.0016083302895882128 2.8099435439162005e-05
H -2.4447095223580204 -2.258286260962124 -6.83984619034069e-06
H 0.028572920454596834 -2.455569253932996 -1.7722040177587295e-05
H -2.0757342611148535 2.0315871937107355 3.640824351906088e-05
H 0.03337004601980737 2.8304873930954533 1.9140361601995105e-05
*
