! wb97x-v def2-tzvp def2/J RIJCOSX DEFGRID2 scfconv7 GCP(DFT/TZ) printgap
%output
    printlevel normal
end
%cpcm
    smd true
    smdsolvent "water"
end
* xyz 0 1
C -2.419097036260352 -0.07755586056133543 -0.00018965245913778737
C -1.846780342135505 -1.3483991260846726 -0.00015743779292246411
C -0.46211628905966473 -1.481682740494972 -6.521983663645468e-05
C 0.3318899480409741 -0.34266451527478275 -1.4769045235715475e-05
C -0.22871177190713776 0.9388366973645476 -5.621366837179319e-05
C -1.6189127881229013 1.0572308803290529 -0.00013927234042776287
O 0.5110639384125414 2.0874510404839146 -2.87478847956544e-05
Cl 2.0868826196934522 -0.49815551143347847 9.946929984600819e-05
H -3.498243147053145 0.033811407616143416 -0.0002616074640711382
H -2.469588594129455 -2.2359939076813733 -0.00020730371093593818
H 0.0022690939476222483 -2.4616027579226745 -4.0707367741641936e-05
H -2.052306630037507 2.052001366569013 -0.00017474500792541924
H 1.4563619906523366 1.8711971960076401 7.8279209673392e-06
*
